(set-info :smt-lib-version 2.6)
(set-logic UFNIA)
(set-info :source |
Generated by: Geoff Sutcliffe
Generated on: 2026-03-11
Generator: TPTPWorld
Application: Benchmarking automated theorem provers
Time limit: 120.0

These benchmarks are translations from the TPTP Library (Thousands of
Problems for Theorem Provers), see http://www.cs.miami.edu/~tptp/

The TPTP is maintained by Geoff Sutcliffe, and he contributed this
selection of benchmarks to SMT-LIB.  They were exported from the
v9.2.1 realease of TPTP.
|)
(set-info :category "industrial")
(set-info :status "unknown")
; SZS status Success
(declare-sort $$unsorted 0)
(declare-sort tptp.uni 0)
(declare-sort tptp.ty 0)
(declare-fun tptp.sort1 (tptp.ty tptp.uni) Bool)
(declare-fun tptp.witness1 (tptp.ty) tptp.uni)
(assert (forall ((A tptp.ty)) (tptp.sort1 A (tptp.witness1 A))))
(declare-fun tptp.int () tptp.ty)
(declare-fun tptp.real () tptp.ty)
(declare-sort tptp.bool1 0)
(declare-fun tptp.bool () tptp.ty)
(declare-fun tptp.true1 () tptp.bool1)
(declare-fun tptp.false1 () tptp.bool1)
(declare-fun tptp.match_bool1 (tptp.ty tptp.bool1 tptp.uni tptp.uni) tptp.uni)
(assert (forall ((A tptp.ty) (X tptp.bool1) (X1 tptp.uni) (X2 tptp.uni)) (tptp.sort1 A (tptp.match_bool1 A X X1 X2))))
(assert (forall ((A tptp.ty) (Z tptp.uni) (Z1 tptp.uni)) (=> (tptp.sort1 A Z) (= (tptp.match_bool1 A tptp.true1 Z Z1) Z))))
(assert (forall ((A tptp.ty) (Z tptp.uni) (Z1 tptp.uni)) (=> (tptp.sort1 A Z1) (= (tptp.match_bool1 A tptp.false1 Z Z1) Z1))))
(assert (not (= tptp.true1 tptp.false1)))
(assert (forall ((U tptp.bool1)) (or (= U tptp.true1) (= U tptp.false1))))
(declare-sort tptp.tuple02 0)
(declare-fun tptp.tuple0 () tptp.ty)
(declare-fun tptp.tuple03 () tptp.tuple02)
(assert (forall ((U tptp.tuple02)) (= U tptp.tuple03)))
(declare-fun tptp.qtmark () tptp.ty)
(assert (forall ((X Int) (Y Int) (Z Int)) (=> (<= X Y) (=> (<= 0 Z) (<= (* X Z) (* Y Z))))))
(declare-fun tptp.min1 (Int Int) Int)
(declare-fun tptp.max1 (Int Int) Int)
(assert (forall ((X Int) (Y Int)) (let ((_let_1 (tptp.max1 X Y))) (and (<= X _let_1) (<= Y _let_1)))))
(assert (forall ((X Int) (Y Int)) (let ((_let_1 (tptp.max1 X Y))) (or (= _let_1 X) (= _let_1 Y)))))
(assert (forall ((X Int) (Y Int)) (let ((_let_1 (tptp.min1 X Y))) (and (<= _let_1 X) (<= _let_1 Y)))))
(assert (forall ((X Int) (Y Int)) (let ((_let_1 (tptp.min1 X Y))) (or (= _let_1 X) (= _let_1 Y)))))
(assert (forall ((X Int) (Y Int)) (=> (<= Y X) (= (tptp.max1 X Y) X))))
(assert (forall ((X Int) (Y Int)) (=> (<= X Y) (= (tptp.max1 X Y) Y))))
(assert (forall ((X Int) (Y Int)) (=> (<= X Y) (= (tptp.min1 X Y) X))))
(assert (forall ((X Int) (Y Int)) (=> (<= Y X) (= (tptp.min1 X Y) Y))))
(assert (forall ((X Int) (Y Int)) (=> (<= Y X) (= (tptp.max1 X Y) (tptp.max1 Y X)))))
(assert (forall ((X Int) (Y Int)) (=> (<= Y X) (= (tptp.min1 X Y) (tptp.min1 Y X)))))
(declare-fun tptp.list (tptp.ty) tptp.ty)
(declare-fun tptp.nil (tptp.ty) tptp.uni)
(assert (forall ((A tptp.ty)) (tptp.sort1 (tptp.list A) (tptp.nil A))))
(declare-fun tptp.cons (tptp.ty tptp.uni tptp.uni) tptp.uni)
(assert (forall ((A tptp.ty) (X tptp.uni) (X1 tptp.uni)) (tptp.sort1 (tptp.list A) (tptp.cons A X X1))))
(declare-fun tptp.match_list1 (tptp.ty tptp.ty tptp.uni tptp.uni tptp.uni) tptp.uni)
(assert (forall ((A tptp.ty) (A1 tptp.ty) (X tptp.uni) (X1 tptp.uni) (X2 tptp.uni)) (tptp.sort1 A1 (tptp.match_list1 A1 A X X1 X2))))
(assert (forall ((A tptp.ty) (A1 tptp.ty) (Z tptp.uni) (Z1 tptp.uni)) (=> (tptp.sort1 A1 Z) (= (tptp.match_list1 A1 A (tptp.nil A) Z Z1) Z))))
(assert (forall ((A tptp.ty) (A1 tptp.ty) (Z tptp.uni) (Z1 tptp.uni) (U tptp.uni) (U1 tptp.uni)) (=> (tptp.sort1 A1 Z1) (= (tptp.match_list1 A1 A (tptp.cons A U U1) Z Z1) Z1))))
(assert (forall ((A tptp.ty) (V tptp.uni) (V1 tptp.uni)) (not (= (tptp.nil A) (tptp.cons A V V1)))))
(declare-fun tptp.cons_proj_11 (tptp.ty tptp.uni) tptp.uni)
(assert (forall ((A tptp.ty) (X tptp.uni)) (tptp.sort1 A (tptp.cons_proj_11 A X))))
(assert (forall ((A tptp.ty) (U tptp.uni) (U1 tptp.uni)) (=> (tptp.sort1 A U) (= (tptp.cons_proj_11 A (tptp.cons A U U1)) U))))
(declare-fun tptp.cons_proj_21 (tptp.ty tptp.uni) tptp.uni)
(assert (forall ((A tptp.ty) (X tptp.uni)) (tptp.sort1 (tptp.list A) (tptp.cons_proj_21 A X))))
(assert (forall ((A tptp.ty) (U tptp.uni) (U1 tptp.uni)) (= (tptp.cons_proj_21 A (tptp.cons A U U1)) U1)))
(assert (forall ((A tptp.ty) (U tptp.uni)) (or (= U (tptp.nil A)) (= U (tptp.cons A (tptp.cons_proj_11 A U) (tptp.cons_proj_21 A U))))))
(declare-fun tptp.length2 (tptp.ty tptp.uni) Int)
(assert (forall ((A tptp.ty)) (and (= (tptp.length2 A (tptp.nil A)) 0) (forall ((X tptp.uni) (X1 tptp.uni)) (= (tptp.length2 A (tptp.cons A X X1)) (+ 1 (tptp.length2 A X1)))))))
(assert (forall ((A tptp.ty) (L tptp.uni)) (<= 0 (tptp.length2 A L))))
(assert (forall ((A tptp.ty) (L tptp.uni)) (= (= (tptp.length2 A L) 0) (= L (tptp.nil A)))))
(declare-sort tptp.char1 0)
(declare-fun tptp.char () tptp.ty)
(declare-sort tptp.list_char 0)
(declare-fun tptp.dist1 (tptp.list_char tptp.list_char Int) Bool)
(declare-fun tptp.t2tb (tptp.list_char) tptp.uni)
(assert (forall ((X tptp.list_char)) (tptp.sort1 (tptp.list tptp.char) (tptp.t2tb X))))
(declare-fun tptp.tb2t (tptp.uni) tptp.list_char)
(assert (forall ((I tptp.list_char)) (= (tptp.tb2t (tptp.t2tb I)) I)))
(assert (forall ((J tptp.uni)) (= (tptp.t2tb (tptp.tb2t J)) J)))
(assert (let ((_let_1 (tptp.tb2t (tptp.nil tptp.char)))) (tptp.dist1 _let_1 _let_1 0)))
(declare-fun tptp.t2tb1 (tptp.char1) tptp.uni)
(assert (forall ((X tptp.char1)) (tptp.sort1 tptp.char (tptp.t2tb1 X))))
(declare-fun tptp.tb2t1 (tptp.uni) tptp.char1)
(assert (forall ((I tptp.char1)) (= (tptp.tb2t1 (tptp.t2tb1 I)) I)))
(assert (forall ((J tptp.uni)) (=> (tptp.sort1 tptp.char J) (= (tptp.t2tb1 (tptp.tb2t1 J)) J))))
(assert (forall ((W1 tptp.list_char) (W2 tptp.list_char) (N Int)) (=> (tptp.dist1 W1 W2 N) (forall ((A tptp.char1)) (tptp.dist1 (tptp.tb2t (tptp.cons tptp.char (tptp.t2tb1 A) (tptp.t2tb W1))) W2 (+ N 1))))))
(assert (forall ((W1 tptp.list_char) (W2 tptp.list_char) (N Int)) (=> (tptp.dist1 W1 W2 N) (forall ((A tptp.char1)) (tptp.dist1 W1 (tptp.tb2t (tptp.cons tptp.char (tptp.t2tb1 A) (tptp.t2tb W2))) (+ N 1))))))
(assert (forall ((W1 tptp.list_char) (W2 tptp.list_char) (N Int)) (=> (tptp.dist1 W1 W2 N) (forall ((A tptp.char1)) (let ((_let_1 (tptp.t2tb1 A))) (tptp.dist1 (tptp.tb2t (tptp.cons tptp.char _let_1 (tptp.t2tb W1))) (tptp.tb2t (tptp.cons tptp.char _let_1 (tptp.t2tb W2))) N))))))
(assert (forall ((Z tptp.list_char) (Z1 tptp.list_char) (Z2 Int)) (let ((_let_1 (tptp.tb2t (tptp.nil tptp.char)))) (=> (tptp.dist1 Z Z1 Z2) (or (and (= Z _let_1) (= Z1 _let_1) (= Z2 0)) (exists ((W1 tptp.list_char) (W2 tptp.list_char) (N Int)) (and (tptp.dist1 W1 W2 N) (exists ((A tptp.char1)) (and (= Z (tptp.tb2t (tptp.cons tptp.char (tptp.t2tb1 A) (tptp.t2tb W1)))) (= Z1 W2) (= Z2 (+ N 1)))))) (exists ((W1 tptp.list_char) (W2 tptp.list_char) (N Int)) (and (tptp.dist1 W1 W2 N) (exists ((A tptp.char1)) (and (= Z W1) (= Z1 (tptp.tb2t (tptp.cons tptp.char (tptp.t2tb1 A) (tptp.t2tb W2)))) (= Z2 (+ N 1)))))) (exists ((W1 tptp.list_char) (W2 tptp.list_char) (N Int)) (and (tptp.dist1 W1 W2 N) (exists ((A tptp.char1)) (let ((_let_1 (tptp.t2tb1 A))) (and (= Z (tptp.tb2t (tptp.cons tptp.char _let_1 (tptp.t2tb W1)))) (= Z1 (tptp.tb2t (tptp.cons tptp.char _let_1 (tptp.t2tb W2)))) (= Z2 N)))))))))))
(declare-fun tptp.min_dist1 (tptp.list_char tptp.list_char Int) Bool)
(assert (forall ((W1 tptp.list_char) (W2 tptp.list_char) (N Int)) (= (tptp.min_dist1 W1 W2 N) (and (tptp.dist1 W1 W2 N) (forall ((M Int)) (=> (tptp.dist1 W1 W2 M) (<= N M)))))))
(declare-fun tptp.infix_plpl (tptp.ty tptp.uni tptp.uni) tptp.uni)
(assert (forall ((A tptp.ty) (X tptp.uni) (X1 tptp.uni)) (tptp.sort1 (tptp.list A) (tptp.infix_plpl A X X1))))
(assert (forall ((A tptp.ty) (L2 tptp.uni)) (and (= (tptp.infix_plpl A (tptp.nil A) L2) L2) (forall ((X tptp.uni) (X1 tptp.uni)) (= (tptp.infix_plpl A (tptp.cons A X X1) L2) (tptp.cons A X (tptp.infix_plpl A X1 L2)))))))
(assert (forall ((A tptp.ty) (L1 tptp.uni) (L2 tptp.uni) (L3 tptp.uni)) (= (tptp.infix_plpl A L1 (tptp.infix_plpl A L2 L3)) (tptp.infix_plpl A (tptp.infix_plpl A L1 L2) L3))))
(assert (forall ((A tptp.ty) (L tptp.uni)) (= (tptp.infix_plpl A L (tptp.nil A)) L)))
(assert (forall ((A tptp.ty) (L1 tptp.uni) (L2 tptp.uni)) (= (tptp.length2 A (tptp.infix_plpl A L1 L2)) (+ (tptp.length2 A L1) (tptp.length2 A L2)))))
(declare-fun tptp.mem (tptp.ty tptp.uni tptp.uni) Bool)
(assert (forall ((A tptp.ty) (X tptp.uni)) (=> (tptp.sort1 A X) (and (not (tptp.mem A X (tptp.nil A))) (forall ((X1 tptp.uni) (X2 tptp.uni)) (=> (tptp.sort1 A X1) (= (tptp.mem A X (tptp.cons A X1 X2)) (or (= X X1) (tptp.mem A X X2)))))))))
(assert (forall ((A tptp.ty) (X tptp.uni) (L1 tptp.uni) (L2 tptp.uni)) (= (tptp.mem A X (tptp.infix_plpl A L1 L2)) (or (tptp.mem A X L1) (tptp.mem A X L2)))))
(assert (forall ((A tptp.ty) (X tptp.uni) (L tptp.uni)) (=> (tptp.mem A X L) (exists ((L1 tptp.uni) (L2 tptp.uni)) (let ((_let_1 (tptp.list A))) (and (tptp.sort1 _let_1 L1) (tptp.sort1 _let_1 L2) (= L (tptp.infix_plpl A L1 (tptp.cons A X L2)))))))))
(declare-fun tptp.last_char1 (tptp.char1 tptp.list_char) tptp.char1)
(assert (forall ((A tptp.char1)) (and (= (tptp.last_char1 A (tptp.tb2t (tptp.nil tptp.char))) A) (forall ((X tptp.char1) (X1 tptp.list_char)) (= (tptp.last_char1 A (tptp.tb2t (tptp.cons tptp.char (tptp.t2tb1 X) (tptp.t2tb X1)))) (tptp.last_char1 X X1))))))
(declare-fun tptp.but_last1 (tptp.char1 tptp.list_char) tptp.list_char)
(assert (forall ((A tptp.char1)) (let ((_let_1 (tptp.tb2t (tptp.nil tptp.char)))) (and (= (tptp.but_last1 A _let_1) _let_1) (forall ((X tptp.char1) (X1 tptp.list_char)) (= (tptp.but_last1 A (tptp.tb2t (tptp.cons tptp.char (tptp.t2tb1 X) (tptp.t2tb X1)))) (tptp.tb2t (tptp.cons tptp.char (tptp.t2tb1 A) (tptp.t2tb (tptp.but_last1 X X1))))))))))
(assert (forall ((U tptp.list_char) (A tptp.char1)) (= (tptp.tb2t (tptp.infix_plpl tptp.char (tptp.t2tb (tptp.but_last1 A U)) (tptp.cons tptp.char (tptp.t2tb1 (tptp.last_char1 A U)) (tptp.nil tptp.char)))) (tptp.tb2t (tptp.cons tptp.char (tptp.t2tb1 A) (tptp.t2tb U))))))
(assert (forall ((A tptp.char1) (U tptp.list_char)) (exists ((V tptp.list_char) (B tptp.char1)) (let ((_let_1 (tptp.t2tb U))) (let ((_let_2 (tptp.t2tb V))) (and (= (tptp.tb2t (tptp.infix_plpl tptp.char _let_2 (tptp.cons tptp.char (tptp.t2tb1 B) (tptp.nil tptp.char)))) (tptp.tb2t (tptp.cons tptp.char (tptp.t2tb1 A) _let_1))) (= (tptp.length2 tptp.char _let_2) (tptp.length2 tptp.char _let_1))))))))
(assert (forall ((W1 tptp.list_char) (Wqt2 tptp.list_char) (M Int) (A tptp.char1)) (=> (tptp.dist1 W1 Wqt2 M) (forall ((W2 tptp.list_char)) (=> (= Wqt2 (tptp.tb2t (tptp.cons tptp.char (tptp.t2tb1 A) (tptp.t2tb W2)))) (exists ((U1 tptp.list_char) (V1 tptp.list_char) (K Int)) (let ((_let_1 (tptp.t2tb U1))) (and (= W1 (tptp.tb2t (tptp.infix_plpl tptp.char _let_1 (tptp.t2tb V1)))) (tptp.dist1 V1 W2 K) (<= (+ K (tptp.length2 tptp.char _let_1)) (+ M 1))))))))))
(assert (forall ((W1 tptp.list_char) (W2 tptp.list_char) (N Int)) (=> (tptp.dist1 W1 W2 N) (tptp.dist1 W2 W1 N))))
(assert (forall ((W1 tptp.list_char) (W2 tptp.list_char) (M Int) (A tptp.char1)) (=> (tptp.dist1 (tptp.tb2t (tptp.cons tptp.char (tptp.t2tb1 A) (tptp.t2tb W1))) W2 M) (exists ((U2 tptp.list_char) (V2 tptp.list_char) (K Int)) (let ((_let_1 (tptp.t2tb U2))) (and (= W2 (tptp.tb2t (tptp.infix_plpl tptp.char _let_1 (tptp.t2tb V2)))) (tptp.dist1 W1 V2 K) (<= (+ K (tptp.length2 tptp.char _let_1)) (+ M 1))))))))
(assert (forall ((U tptp.list_char) (V tptp.list_char) (W tptp.list_char) (N Int)) (let ((_let_1 (tptp.t2tb U))) (=> (tptp.dist1 V W N) (tptp.dist1 (tptp.tb2t (tptp.infix_plpl tptp.char _let_1 (tptp.t2tb V))) W (+ (tptp.length2 tptp.char _let_1) N))))))
(assert (forall ((U tptp.list_char) (V tptp.list_char) (W tptp.list_char) (N Int)) (let ((_let_1 (tptp.t2tb U))) (=> (tptp.dist1 V W N) (tptp.dist1 V (tptp.tb2t (tptp.infix_plpl tptp.char _let_1 (tptp.t2tb W))) (+ (tptp.length2 tptp.char _let_1) N))))))
(assert (forall ((W1 tptp.list_char) (W2 tptp.list_char) (A tptp.char1) (N Int)) (let ((_let_1 (tptp.t2tb1 A))) (=> (tptp.min_dist1 W1 W2 N) (tptp.min_dist1 (tptp.tb2t (tptp.cons tptp.char _let_1 (tptp.t2tb W1))) (tptp.tb2t (tptp.cons tptp.char _let_1 (tptp.t2tb W2))) N)))))
(assert (forall ((W1 tptp.list_char) (W2 tptp.list_char) (A tptp.char1) (B tptp.char1) (M Int) (P Int)) (let ((_let_1 (tptp.tb2t (tptp.cons tptp.char (tptp.t2tb1 B) (tptp.t2tb W2))))) (let ((_let_2 (tptp.tb2t (tptp.cons tptp.char (tptp.t2tb1 A) (tptp.t2tb W1))))) (=> (not (= A B)) (=> (tptp.min_dist1 _let_2 W2 P) (=> (tptp.min_dist1 W1 _let_1 M) (tptp.min_dist1 _let_2 _let_1 (+ (tptp.min1 M P) 1)))))))))
(assert (forall ((W tptp.list_char) (A tptp.char1) (N Int)) (let ((_let_1 (tptp.tb2t (tptp.nil tptp.char)))) (=> (tptp.min_dist1 W _let_1 N) (tptp.min_dist1 (tptp.tb2t (tptp.cons tptp.char (tptp.t2tb1 A) (tptp.t2tb W))) _let_1 (+ N 1))))))
(assert (forall ((W tptp.list_char)) (tptp.min_dist1 (tptp.tb2t (tptp.nil tptp.char)) W (tptp.length2 tptp.char (tptp.t2tb W)))))
(declare-fun tptp.ref (tptp.ty) tptp.ty)
(declare-fun tptp.mk_ref (tptp.ty tptp.uni) tptp.uni)
(assert (forall ((A tptp.ty) (X tptp.uni)) (tptp.sort1 (tptp.ref A) (tptp.mk_ref A X))))
(declare-fun tptp.contents (tptp.ty tptp.uni) tptp.uni)
(assert (forall ((A tptp.ty) (X tptp.uni)) (tptp.sort1 A (tptp.contents A X))))
(assert (forall ((A tptp.ty) (U tptp.uni)) (=> (tptp.sort1 A U) (= (tptp.contents A (tptp.mk_ref A U)) U))))
(assert (forall ((A tptp.ty) (U tptp.uni)) (=> (tptp.sort1 (tptp.ref A) U) (= U (tptp.mk_ref A (tptp.contents A U))))))
(declare-fun tptp.map (tptp.ty tptp.ty) tptp.ty)
(declare-fun tptp.get (tptp.ty tptp.ty tptp.uni tptp.uni) tptp.uni)
(assert (forall ((A tptp.ty) (B tptp.ty) (X tptp.uni) (X1 tptp.uni)) (tptp.sort1 B (tptp.get B A X X1))))
(declare-fun tptp.set (tptp.ty tptp.ty tptp.uni tptp.uni tptp.uni) tptp.uni)
(assert (forall ((A tptp.ty) (B tptp.ty) (X tptp.uni) (X1 tptp.uni) (X2 tptp.uni)) (tptp.sort1 (tptp.map A B) (tptp.set B A X X1 X2))))
(assert (forall ((A tptp.ty) (B tptp.ty) (M tptp.uni) (A1 tptp.uni) (A2 tptp.uni) (B1 tptp.uni)) (=> (tptp.sort1 B B1) (=> (= A1 A2) (= (tptp.get B A (tptp.set B A M A1 B1) A2) B1)))))
(assert (forall ((A tptp.ty) (B tptp.ty) (M tptp.uni) (A1 tptp.uni) (A2 tptp.uni)) (=> (tptp.sort1 A A1) (=> (tptp.sort1 A A2) (forall ((B1 tptp.uni)) (=> (not (= A1 A2)) (= (tptp.get B A (tptp.set B A M A1 B1) A2) (tptp.get B A M A2))))))))
(declare-fun tptp.const (tptp.ty tptp.ty tptp.uni) tptp.uni)
(assert (forall ((A tptp.ty) (B tptp.ty) (X tptp.uni)) (tptp.sort1 (tptp.map A B) (tptp.const B A X))))
(assert (forall ((A tptp.ty) (B tptp.ty) (B1 tptp.uni) (A1 tptp.uni)) (=> (tptp.sort1 B B1) (= (tptp.get B A (tptp.const B A B1) A1) B1))))
(declare-fun tptp.array (tptp.ty) tptp.ty)
(declare-fun tptp.mk_array1 (tptp.ty Int tptp.uni) tptp.uni)
(assert (forall ((A tptp.ty) (X Int) (X1 tptp.uni)) (tptp.sort1 (tptp.array A) (tptp.mk_array1 A X X1))))
(declare-fun tptp.length3 (tptp.ty tptp.uni) Int)
(assert (forall ((A tptp.ty) (U Int) (U1 tptp.uni)) (= (tptp.length3 A (tptp.mk_array1 A U U1)) U)))
(declare-fun tptp.elts (tptp.ty tptp.uni) tptp.uni)
(assert (forall ((A tptp.ty) (X tptp.uni)) (tptp.sort1 (tptp.map tptp.int A) (tptp.elts A X))))
(assert (forall ((A tptp.ty) (U Int) (U1 tptp.uni)) (=> (tptp.sort1 (tptp.map tptp.int A) U1) (= (tptp.elts A (tptp.mk_array1 A U U1)) U1))))
(assert (forall ((A tptp.ty) (U tptp.uni)) (= U (tptp.mk_array1 A (tptp.length3 A U) (tptp.elts A U)))))
(declare-fun tptp.get2 (tptp.ty tptp.uni Int) tptp.uni)
(assert (forall ((A tptp.ty) (X tptp.uni) (X1 Int)) (tptp.sort1 A (tptp.get2 A X X1))))
(declare-fun tptp.t2tb2 (Int) tptp.uni)
(assert (forall ((X Int)) (tptp.sort1 tptp.int (tptp.t2tb2 X))))
(declare-fun tptp.tb2t2 (tptp.uni) Int)
(assert (forall ((I Int)) (= (tptp.tb2t2 (tptp.t2tb2 I)) I)))
(assert (forall ((J tptp.uni)) (= (tptp.t2tb2 (tptp.tb2t2 J)) J)))
(assert (forall ((A tptp.ty) (A1 tptp.uni) (I Int)) (= (tptp.get2 A A1 I) (tptp.get A tptp.int (tptp.elts A A1) (tptp.t2tb2 I)))))
(declare-fun tptp.set2 (tptp.ty tptp.uni Int tptp.uni) tptp.uni)
(assert (forall ((A tptp.ty) (X tptp.uni) (X1 Int) (X2 tptp.uni)) (tptp.sort1 (tptp.array A) (tptp.set2 A X X1 X2))))
(assert (forall ((A tptp.ty) (A1 tptp.uni) (I Int) (V tptp.uni)) (= (tptp.set2 A A1 I V) (tptp.mk_array1 A (tptp.length3 A A1) (tptp.set A tptp.int (tptp.elts A A1) (tptp.t2tb2 I) V)))))
(declare-fun tptp.make1 (tptp.ty Int tptp.uni) tptp.uni)
(assert (forall ((A tptp.ty) (X Int) (X1 tptp.uni)) (tptp.sort1 (tptp.array A) (tptp.make1 A X X1))))
(assert (forall ((A tptp.ty) (N Int) (V tptp.uni)) (= (tptp.make1 A N V) (tptp.mk_array1 A N (tptp.const A tptp.int V)))))
(declare-sort tptp.array_char 0)
(declare-fun tptp.suffix1 (tptp.array_char Int) tptp.list_char)
(declare-fun tptp.t2tb3 (tptp.array_char) tptp.uni)
(assert (forall ((X tptp.array_char)) (tptp.sort1 (tptp.array tptp.char) (tptp.t2tb3 X))))
(declare-fun tptp.tb2t3 (tptp.uni) tptp.array_char)
(assert (forall ((I tptp.array_char)) (= (tptp.tb2t3 (tptp.t2tb3 I)) I)))
(assert (forall ((J tptp.uni)) (= (tptp.t2tb3 (tptp.tb2t3 J)) J)))
(assert (forall ((A tptp.array_char)) (= (tptp.suffix1 A (tptp.length3 tptp.char (tptp.t2tb3 A))) (tptp.tb2t (tptp.nil tptp.char)))))
(assert (forall ((A tptp.array_char) (I Int)) (let ((_let_1 (tptp.t2tb3 A))) (=> (and (<= 0 I) (< I (tptp.length3 tptp.char _let_1))) (= (tptp.suffix1 A I) (tptp.tb2t (tptp.cons tptp.char (tptp.get2 tptp.char _let_1 I) (tptp.t2tb (tptp.suffix1 A (+ I 1))))))))))
(assert (forall ((A tptp.array_char) (I Int)) (let ((_let_1 (tptp.length3 tptp.char (tptp.t2tb3 A)))) (=> (and (<= 0 I) (<= I _let_1)) (= (tptp.length2 tptp.char (tptp.t2tb (tptp.suffix1 A I))) (- _let_1 I))))))
(declare-fun tptp.min_suffix1 (tptp.array_char tptp.array_char Int Int Int) Bool)
(assert (forall ((A1 tptp.array_char) (A2 tptp.array_char) (I Int) (J Int) (N Int)) (= (tptp.min_suffix1 A1 A2 I J N) (tptp.min_dist1 (tptp.suffix1 A1 I) (tptp.suffix1 A2 J) N))))
(declare-sort tptp.map_int_int 0)
(declare-fun tptp.t2tb5 (tptp.map_int_int) tptp.uni)
(assert (forall ((X tptp.map_int_int)) (tptp.sort1 (tptp.map tptp.int tptp.int) (tptp.t2tb5 X))))
(declare-fun tptp.tb2t5 (tptp.uni) tptp.map_int_int)
(assert (forall ((I tptp.map_int_int)) (= (tptp.tb2t5 (tptp.t2tb5 I)) I)))
(assert (forall ((J tptp.uni)) (= (tptp.t2tb5 (tptp.tb2t5 J)) J)))
(assert (not (forall ((W1 Int) (W11 tptp.uni) (W2 Int) (W21 tptp.uni)) (let ((_let_1 (<= 0 W2))) (let ((_let_2 (<= 0 (+ W2 1)))) (let ((_let_3 (tptp.map tptp.int tptp.char))) (=> (tptp.sort1 _let_3 W11) (=> (tptp.sort1 _let_3 W21) (=> (and (<= 0 W1) _let_1) (=> _let_2 (=> _let_2 (=> _let_1 (forall ((T tptp.map_int_int) (I Int)) (let ((_let_1 (+ W2 1))) (let ((_let_2 (<= 0 I))) (=> (and _let_2 (<= I W2)) (=> (forall ((J Int)) (=> (and (<= 0 J) (< J I)) (= (tptp.tb2t2 (tptp.get tptp.int tptp.int (tptp.t2tb5 T) (tptp.t2tb2 J))) (- W2 J)))) (=> (and (<= 0 _let_1) _let_2 (< I _let_1)) (forall ((T1 tptp.map_int_int)) (=> (and (<= 0 (+ W2 1)) (= T1 (tptp.tb2t5 (tptp.set tptp.int tptp.int (tptp.t2tb5 T) (tptp.t2tb2 I) (tptp.t2tb2 (- W2 I)))))) (forall ((J Int)) (=> (and (<= 0 J) (< J (+ I 1))) (= (tptp.tb2t2 (tptp.get tptp.int tptp.int (tptp.t2tb5 T1) (tptp.t2tb2 J))) (- W2 J))))))))))))))))))))))))
(check-sat)
(exit)
